GLPSOL: GLPK LP/MIP Solver, v4.52
Parameter(s) specified in the command line:
 --model utils_GLPK/modelos/MTAV_empate.mod --data utils_GLPK/datos/MTAV_pref_empate.dat
 --output utils_GLPK/soluciones/MTAV_asign.sol --log utils_GLPK/logs/ejecucion_secundaria.log
Reading model section from utils_GLPK/modelos/MTAV_empate.mod...
utils_GLPK/modelos/MTAV_empate.mod:38: warning: unexpected end of file; missing end statement inserted
38 lines were read
Reading data section from utils_GLPK/datos/MTAV_pref_empate.dat...
utils_GLPK/datos/MTAV_pref_empate.dat:16: warning: final NL missing before end of file
16 lines were read
Generating resultado...
Generating z_menorIgual...
Generating unicaAsignacionCoperativista_mayorIgual...
Generating unicaAsignacionCoperativista_menorIgual...
Generating unicaAsignacionCasa_mayorIgual...
Generating unicaAsignacionCasa_menorIgual...
Generating s_mayorIgual...
Generating s_menorIgual...
Model has been successfully generated
GLPK Integer Optimizer, v4.52
18 rows, 10 columns, 67 non-zeros
10 integer variables, 9 of which are binary
Preprocessing...
17 rows, 10 columns, 66 non-zeros
10 integer variables, 9 of which are binary
Scaling...
 A: min|aij| =  1.000e+00  max|aij| =  3.000e+00  ratio =  3.000e+00
Problem data seem to be well scaled
Constructing initial basis...
Size of triangular part is 17
Solving LP relaxation...
GLPK Simplex Optimizer, v4.52
17 rows, 10 columns, 66 non-zeros
      0: obj =   0.000000000e+00  infeas =  1.100e+01 (0)
*    11: obj =   2.000000000e+00  infeas =  1.110e-16 (0)
*    14: obj =   1.666666667e+00  infeas =  1.110e-15 (0)
OPTIMAL LP SOLUTION FOUND
Integer optimization begins...
+    14: mip =     not found yet >=              -inf        (1; 0)
Solution found by heuristic: 2
+    14: mip =   2.000000000e+00 >=     tree is empty   0.0% (0; 1)
INTEGER OPTIMAL SOLUTION FOUND
Time used:   0.0 secs
Memory used: 0.1 Mb (153447 bytes)
Writing MIP solution to `utils_GLPK/soluciones/MTAV_asign.sol'...
